p cnf 142 278
-15 12 -33 35 0
-24 16 41 42 0
-24 16 41 -42 0
-24 16 -41 43 0
-24 16 -41 -43 0
12 38 10 15 0
-7 5 -36 30 0
-38 -23 -4 10 0
-20 1 28 -29 0
-12 15 44 45 0
-12 15 44 -45 0
-12 15 -44 46 0
-12 15 -44 -46 0
-33 -1 -28 -35 0
6 22 -11 -37 0
-14 -23 -2 -4 0
-36 3 30 8 0
2 -18 -14 -40 0
-37 22 11 -6 0
25 9 31 32 0
2 47 48 50 0
2 47 48 -50 0
2 47 -48 51 0
2 47 -48 -51 0
2 -47 49 52 0
2 -47 49 -52 0
2 -47 -49 53 0
2 -47 -49 -53 0
-31 -25 54 55 0
-31 -25 54 -55 0
-31 -25 -54 56 0
-31 -25 -54 -56 0
-11 37 57 58 0
-11 37 57 -58 0
-11 37 -57 59 0
-11 37 -57 -59 0
8 3 1 28 0
36 -21 27 -30 0
-18 -40 35 33 0
16 24 12 15 0
17 26 -28 -1 0
14 -2 -3 -8 0
2 14 60 61 0
2 14 60 -61 0
2 14 -60 62 0
2 14 -60 -62 0
-14 -6 2 -22 0
13 34 -17 -26 0
27 17 -21 26 0
27 39 21 -19 0
32 11 9 -37 0
-39 21 -19 -27 0
16 38 10 24 0
-14 39 -19 -2 0
32 -35 -9 -33 0
-8 -36 -30 3 0
-16 -8 3 24 0
-40 -23 4 -18 0
-37 25 11 31 0
39 14 -2 19 0
-31 15 12 25 0
37 9 -32 11 0
-26 17 -28 1 0
18 40 23 -4 0
-28 -8 3 1 0
39 19 -21 27 0
18 -40 63 64 0
18 -40 63 -64 0
18 -40 -63 65 0
18 -40 -63 -65 0
7 -30 36 -5 0
-15 -12 -16 -24 0
4 66 67 69 0
4 66 67 -69 0
4 66 -67 70 0
4 66 -67 -70 0
4 -66 68 71 0
4 -66 68 -71 0
4 -66 -68 72 0
4 -66 -68 -72 0
10 38 -17 -26 0
-5 7 -11 -37 0
-38 -16 -24 -10 0
9 33 35 -32 0
36 -8 -30 -3 0
-27 -20 21 -29 0
35 -33 9 32 0
-29 20 73 74 0
-29 20 73 -74 0
-29 20 -73 75 0
-29 20 -73 -75 0
-20 -19 29 39 0
13 -34 76 77 0
13 -34 76 -77 0
13 -34 -76 78 0
13 -34 -76 -78 0
-26 17 21 27 0
11 33 35 37 0
24 -38 -16 10 0
-23 5 4 -7 0
31 -25 -15 -12 0
-2 14 23 -4 0
-25 31 -24 -16 0
-11 -35 -37 -33 0
-34 -28 -1 -13 0
-28 -1 -8 -3 0
-20 -29 -7 5 0
29 27 -21 20 0
-12 -10 -38 -15 0
3 24 8 16 0
2 8 3 -14 0
25 9 -32 -31 0
6 22 17 26 0
22 17 -6 -26 0
31 39 -25 19 0
39 19 -4 23 0
-20 29 5 7 0
-22 -27 -6 21 0
40 -18 -23 -4 0
23 79 80 82 0
23 79 80 -82 0
23 79 -80 83 0
23 79 -80 -83 0
23 -79 81 84 0
23 -79 81 -84 0
23 -79 -81 85 0
23 -79 -81 -85 0
7 11 5 -37 0
-17 -26 -6 -22 0
-15 12 24 -16 0
-35 33 86 87 0
-35 33 86 -87 0
-35 33 -86 88 0
-35 33 -86 -88 0
12 15 33 35 0
-17 26 89 90 0
-17 26 89 -90 0
-17 26 -89 91 0
-17 26 -89 -91 0
-13 22 6 -34 0
21 -20 29 27 0
-14 92 93 95 0
-14 92 93 -95 0
-14 92 -93 96 0
-14 92 -93 -96 0
-14 -92 94 97 0
-14 -92 94 -97 0
-14 -92 -94 98 0
-14 -92 -94 -98 0
-27 -21 99 100 0
-27 -21 99 -100 0
-27 -21 -99 101 0
-27 -21 -99 -101 0
-19 -39 -23 4 0
34 -13 17 -26 0
-30 36 -38 -10 0
7 -5 -4 23 0
-39 19 102 103 0
-39 19 102 -103 0
-39 19 -102 104 0
-39 19 -102 -104 0
-33 35 40 -18 0
-18 40 32 9 0
-3 8 105 106 0
-3 8 105 -106 0
-3 8 -105 107 0
-3 8 -105 -107 0
31 -37 -11 -25 0
-33 -37 11 35 0
-14 40 -2 -18 0
1 28 35 33 0
34 15 12 13 0
17 -10 26 -38 0
3 -8 40 -18 0
34 28 13 1 0
28 -1 108 109 0
28 -1 108 -109 0
28 -1 -108 110 0
28 -1 -108 -110 0
17 -34 -13 26 0
14 22 -2 6 0
23 4 111 112 0
23 4 111 -112 0
23 4 -111 113 0
23 4 -111 -113 0
31 25 39 -19 0
40 -2 18 14 0
-13 -12 -15 -34 0
36 20 29 -30 0
31 32 -25 -9 0
-38 -15 10 12 0
34 1 -28 -13 0
29 20 39 19 0
-2 22 -6 -14 0
19 114 115 117 0
19 114 115 -117 0
19 114 -115 118 0
19 114 -115 -118 0
19 -114 116 119 0
19 -114 116 -119 0
19 -114 -116 120 0
19 -114 -116 -120 0
-20 -29 30 -36 0
-40 8 -18 3 0
35 -28 1 -33 0
25 24 16 -31 0
-4 -23 -19 39 0
31 -16 24 25 0
-15 -13 34 12 0
-32 9 -7 5 0
-31 -39 -19 25 0
-3 -8 18 40 0
-27 21 -36 30 0
-10 38 121 122 0
-10 38 121 -122 0
-10 38 -121 123 0
-10 38 -121 -123 0
-36 10 -30 -38 0
34 -13 -16 24 0
-5 29 7 20 0
9 -32 -18 -40 0
-34 -13 -24 -16 0
-5 -7 124 125 0
-5 -7 124 -125 0
-5 -7 -124 126 0
-5 -7 -124 -126 0
39 127 128 130 0
39 127 128 -130 0
39 127 -128 131 0
39 127 -128 -131 0
39 -127 129 132 0
39 -127 129 -132 0
39 -127 -129 133 0
39 -127 -129 -133 0
40 -35 18 -33 0
-3 -16 -8 -24 0
16 24 34 13 0
38 10 30 -36 0
11 25 37 -31 0
-6 11 37 -22 0
30 36 134 135 0
30 36 134 -135 0
30 36 -134 136 0
30 36 -134 -136 0
34 -6 -22 13 0
32 -11 -9 -37 0
4 -23 38 10 0
-39 -14 2 -19 0
-26 17 -38 10 0
-22 6 137 138 0
-22 6 137 -138 0
-22 6 -137 139 0
-22 6 -137 -139 0
-10 -38 23 -4 0
-17 28 1 -26 0
7 5 -23 -4 0
29 -20 -28 1 0
34 -13 -6 22 0
-36 21 27 -30 0
-15 31 12 25 0
27 22 6 -21 0
-30 -36 5 7 0
-9 -32 140 141 0
-9 -32 140 -141 0
-9 -32 -140 142 0
-9 -32 -140 -142 0
32 9 5 7 0
-30 -20 29 -36 0
-14 4 2 -23 0
11 37 5 -7 0
-8 -14 -2 3 0
32 18 -9 40 0
-27 -17 -26 21 0
-9 7 -5 32 0
-19 -39 -29 -20 0
-15 -12 -33 -35 0
20 29 -1 -28 0
21 27 -6 22 0

